CMPL model generation - running

CMPL version: 1.11.0
Authors: Thomas Schleiff, Mike Steglich
Distributed under the GPLv3 

create model instance ...
write model instance ...
CMPL model generation - finished

Solver - running


Welcome to IBM(R) ILOG(R) CPLEX(R) Interactive Optimizer 12.7.1.0
  with Simplex, Mixed Integer & Barrier Optimizers
5725-A06 5725-A29 5724-Y48 5724-Y49 5724-Y54 5724-Y55 5655-Y21
Copyright IBM Corp. 1988, 2017.  All Rights Reserved.

Type 'help' for a list of available commands.
Type 'help' followed by a command name for more
information on commands.

CPLEX> Specified objective sense: MINIMIZE
Selected objective  name:  line[1]
Selected RHS        name:  RHS
Selected bound      name:  BOUND
Problem '/tmp/cmpl.T15173.mps' read.
Read time = 0.04 sec. (8.25 ticks)
CPLEX> CPXPARAM_Read_APIEncoding                        "UTF-8"
Tried aggregator 3 times.
MIP Presolve eliminated 18380 rows and 29004 columns.
MIP Presolve modified 614 coefficients.
Aggregator did 1422 substitutions.
Reduced MIP has 2553 rows, 4167 columns, and 12201 nonzeros.
Reduced MIP has 3999 binaries, 0 generals, 0 SOSs, and 0 indicators.
Presolve time = 0.05 sec. (45.27 ticks)
Found incumbent of value 3783.558856 after 0.10 sec. (92.59 ticks)
Probing time = 0.01 sec. (2.66 ticks)
Tried aggregator 2 times.
MIP Presolve eliminated 3 rows and 52 columns.
MIP Presolve modified 10 coefficients.
Aggregator did 2 substitutions.
Reduced MIP has 2548 rows, 4113 columns, and 12087 nonzeros.
Reduced MIP has 4113 binaries, 0 generals, 0 SOSs, and 0 indicators.
Presolve time = 0.02 sec. (14.78 ticks)
Probing time = 0.01 sec. (2.82 ticks)
Clique table members: 3547.
MIP emphasis: balance optimality and feasibility.
MIP search method: dynamic search.
Parallel mode: none, using 1 thread.
Root relaxation solution time = 0.02 sec. (17.97 ticks)

        Nodes                                         Cuts/
   Node  Left     Objective  IInf  Best Integer    Best Bound    ItCnt     Gap

*     0+    0                         3783.5589        0.0000           100.00%
*     0     0      integral     0     1766.9788     1766.9788     1179    0.00%
Elapsed time = 0.16 sec. (139.18 ticks, tree = 0.00 MB, solutions = 2)

Root node processing (before b&c):
  Real time             =    0.16 sec. (140.46 ticks)
Sequential b&c:
  Real time             =    0.00 sec. (0.00 ticks)
                          ------------
Total (root+branch&cut) =    0.16 sec. (140.46 ticks)

Solution pool: 2 solutions saved.

MIP - Integer optimal solution:  Objective =  1.7669787860e+03
Solution time =    0.16 sec.  Iterations = 1179  Nodes = 0
Deterministic time = 140.56 ticks  (853.89 ticks/sec)

CPLEX> Incumbent solution written to file '/tmp/cmpl.T15173.gsol'.
CPLEX> 
CMPL: Time used for model generation: 0 seconds
CMPL: Time used for solving the model: 1 seconds


Solution written to ASCII file: results/output_generated/2016-07-04-4/fair-nonlinear.sol

Solver - finished
